c Random generated cnf formula, satisfiable: true
p cnf 10 50
9 -6 5 0
4 -5 6 0
-6 -1 -5 0
-5 -2 1 0
2 -4 5 0
-4 -9 -3 0
-9 6 -1 0
-5 -4 10 0
7 1 5 0
6 -9 -3 0
-5 -9 7 0
5 8 3 0
-6 -3 -5 0
-7 -5 -9 0
-7 9 -2 0
10 -2 -3 0
-7 -4 -9 0
4 8 5 0
3 9 2 0
4 -5 2 0
-3 -7 10 0
-10 -8 -3 0
6 -1 10 0
6 10 -3 0
-1 10 6 0
3 10 8 0
8 -2 1 0
10 -6 -2 0
-8 -3 10 0
7 9 3 0
10 -5 -1 0
-6 8 -7 0
-9 -5 -1 0
-3 -9 -7 0
5 -8 -1 0
-3 -5 -1 0
-4 10 -1 0
-4 -5 -2 0
-10 2 6 0
8 -10 -5 0
-4 -5 1 0
-7 -5 3 0
-6 -10 4 0
-10 9 2 0
6 10 -9 0
10 5 -9 0
6 2 5 0
7 -3 9 0
-9 -3 5 0
-4 -6 -5 0
